NAME : rnd13_20.tsp
TYPE : TSP
DIMENSION : 20
EDGE_WEIGHT_TYPE : EUC_2D
NODE_COORD_SECTION
0 117 274
1 388 455
2 421 583
3 937 903
4 605 950
5 302 252
6 640 899
7 11 524
8 732 419
9 764 824
10 950 83
11 969 957
12 562 625
13 820 605
14 130 201
15 20 52
16 486 931
17 305 137
18 834 458
19 626 206
